outputs/case_91.model.txt
is_purchase_real_estate_or_other_assets = False
adjustment_ordered_by_authority = False
investment_approved = True
is_sell_securities_real_estate_or_other_assets_to_party = False
is_transferable_time_deposit_certificate_issued_by_bank_subsidiary = False
is_contract_for_payment_or_service = False
adjustment_period_years = 0
is_responsible_or_staff_manager_of_venture_invested = True
investment_deemed_approved = False
board_attendance_ratio = 666667/10000
bank_subsidiary_net_worth = 0
extension_times = 0
bank_subsidiary_single_related_party_transaction_amount = 0
is_fhc_responsible_or_major_shareholder_sole_proprietor_or_partner_or_enterprise_or_representative = False
is_fhc_affiliated_and_responsible_or_major_shareholder = False
excluded_securities = True
is_fhc_bank_insurance_securities_subsidiary_or_subsidiary_responsible = False
board_approval_ratio = 75
is_party_as_agent_broker_or_commission_service = False
bank_subsidiary_all_related_party_transaction_amount = 0
extension_period_years_per_extension = 0
non_credit_transaction_type = False
is_transaction_with_third_party_related_to_party = False
is_invest_or_purchase_issuer_securities = False
responsible_or_staff_not_manager_of_venture_invested = False
is_fhc_and_responsible_or_major_shareholder = True
subsidiary_business_is_management_of_invested_enterprises = True
internal_control_system_established = True
internal_control_system_executed = True
subsidiary_business_is_investment = True
investment_not_approved_prohibited = False
non_credit_transaction_terms_ok = True
bank_subsidiary_all_related_party_limit_ok = True
investment_approved_or_deemed = True
subsidiary_adjustment_ordered = False
internal_control_executed = True
business_scope_ok = True
non_credit_transaction_condition_met = True
subsidiary_capital_reduction_approval = True
capital_reduction_approved_by_authority = True
subsidiary_business_or_investment_exceed_limit = False
penalty = False
bank_subsidiary_single_related_party_limit_ok = True
subsidiary_adjustment_within_period = True
internal_control_established = True
transaction_terms_not_better_than_others = True
internal_control_ok = True
non_credit_transaction_party = True
non_credit_transaction_ok = True